WARNING: for repeatability, setting FPU to use double precision
============================[ Problem Statistics ]=============================
|                                                                             |
|  Number of variables:            50                                         |
|  Number of clauses:             218                                         |
|  Parse time:                   0.00 s                                       |
|                                                                             |
============================[ Search Statistics ]==============================
| Conflicts |          ORIGINAL         |          LEARNT          | Progress |
|           |    Vars  Clauses Literals |    Limit  Clauses Lit/Cl |          |
===============================================================================
===============================================================================
restarts              : 1
conflicts             : 15             (80645 /sec)
decisions             : 32             (0.00 % random) (172043 /sec)
propagations          : 270            (1451613 /sec)
conflict literals     : 70             (11.39 % deleted)
Memory used           : 20.00 MB
CPU time              : 0.000186 s

SATISFIABLE
